(set-logic ALL)
(declare-fun var0 () String)
(assert (str.in_re var0 (re.++ (re.union (re.+ (re.* (re.* (re.+ (re.union (str.to_re "000") (str.to_re "1")))))) (re.+ (re.* (re.union (re.union (re.union (str.to_re "222") (str.to_re "3")) (re.union (str.to_re "4") (str.to_re "5"))) (re.union (re.+ (str.to_re "66")) (re.+ (str.to_re "777"))))))) (re.union (re.union (re.+ (re.+ (re.union (re.* (str.to_re "88")) (re.* (str.to_re "99"))))) (re.+ (re.+ (re.+ (re.* (str.to_re "aa")))))) (re.union (re.+ (re.union (re.union (re.+ (str.to_re "b")) (re.+ (str.to_re "c"))) (re.union (re.union (str.to_re "ddd") (str.to_re "eee")) (re.union (str.to_re "f") (str.to_re "g"))))) (re.+ (re.+ (re.+ (re.* (str.to_re "hh"))))))))))
(assert (<= 15 (str.len var0)))
(check-sat)